p cnf 312 2842
1 31 0
connect_same_number
-1 -61 68 0
-1 -62 69 0
-1 -63 70 0
-1 -64 71 0
-1 -65 72 0
-1 -66 73 0
-1 -67 74 0
-1 -68 61 0
-1 -69 62 0
-1 -70 63 0
-1 -71 64 0
-1 -72 65 0
-1 -73 66 0
-1 -74 67 0
-31 -61 103 0
-31 -62 104 0
-31 -63 105 0
-31 -64 106 0
-31 -65 107 0
-31 -66 108 0
-31 -67 109 0
-31 -103 61 0
-31 -104 62 0
-31 -105 63 0
-31 -106 64 0
-31 -107 65 0
-31 -108 66 0
-31 -109 67 0
61 62 63 64 65 66 67 0
-61 -62 0
-61 -63 0
-61 -64 0
-61 -65 0
-61 -66 0
-61 -67 0
-62 -61 0
-62 -63 0
-62 -64 0
-62 -65 0
-62 -66 0
-62 -67 0
-63 -61 0
-63 -62 0
-63 -64 0
-63 -65 0
-63 -66 0
-63 -67 0
-64 -61 0
-64 -62 0
-64 -63 0
-64 -65 0
-64 -66 0
-64 -67 0
-65 -61 0
-65 -62 0
-65 -63 0
-65 -64 0
-65 -66 0
-65 -67 0
-66 -61 0
-66 -62 0
-66 -63 0
-66 -64 0
-66 -65 0
-66 -67 0
-67 -61 0
-67 -62 0
-67 -63 0
-67 -64 0
-67 -65 0
-67 -66 0
61 0
-31 -1 0
2 1 36 0
connect_same_number
-2 -68 75 0
-2 -69 76 0
-2 -70 77 0
-2 -71 78 0
-2 -72 79 0
-2 -73 80 0
-2 -74 81 0
-2 -75 68 0
-2 -76 69 0
-2 -77 70 0
-2 -78 71 0
-2 -79 72 0
-2 -80 73 0
-2 -81 74 0
-36 -68 110 0
-36 -69 111 0
-36 -70 112 0
-36 -71 113 0
-36 -72 114 0
-36 -73 115 0
-36 -74 116 0
-36 -110 68 0
-36 -111 69 0
-36 -112 70 0
-36 -113 71 0
-36 -114 72 0
-36 -115 73 0
-36 -116 74 0
68 69 70 71 72 73 74 0
-68 -69 0
-68 -70 0
-68 -71 0
-68 -72 0
-68 -73 0
-68 -74 0
-69 -68 0
-69 -70 0
-69 -71 0
-69 -72 0
-69 -73 0
-69 -74 0
-70 -68 0
-70 -69 0
-70 -71 0
-70 -72 0
-70 -73 0
-70 -74 0
-71 -68 0
-71 -69 0
-71 -70 0
-71 -72 0
-71 -73 0
-71 -74 0
-72 -68 0
-72 -69 0
-72 -70 0
-72 -71 0
-72 -73 0
-72 -74 0
-73 -68 0
-73 -69 0
-73 -70 0
-73 -71 0
-73 -72 0
-73 -74 0
-74 -68 0
-74 -69 0
-74 -70 0
-74 -71 0
-74 -72 0
-74 -73 0
-1 2 36 0
-2 1 36 0
-36 1 2 0
1 -2 -36 0
2 -1 -36 0
36 -1 -2 0
3 2 41 0
connect_same_number
-3 -75 82 0
-3 -76 83 0
-3 -77 84 0
-3 -78 85 0
-3 -79 86 0
-3 -80 87 0
-3 -81 88 0
-3 -82 75 0
-3 -83 76 0
-3 -84 77 0
-3 -85 78 0
-3 -86 79 0
-3 -87 80 0
-3 -88 81 0
-41 -75 117 0
-41 -76 118 0
-41 -77 119 0
-41 -78 120 0
-41 -79 121 0
-41 -80 122 0
-41 -81 123 0
-41 -117 75 0
-41 -118 76 0
-41 -119 77 0
-41 -120 78 0
-41 -121 79 0
-41 -122 80 0
-41 -123 81 0
75 76 77 78 79 80 81 0
-75 -76 0
-75 -77 0
-75 -78 0
-75 -79 0
-75 -80 0
-75 -81 0
-76 -75 0
-76 -77 0
-76 -78 0
-76 -79 0
-76 -80 0
-76 -81 0
-77 -75 0
-77 -76 0
-77 -78 0
-77 -79 0
-77 -80 0
-77 -81 0
-78 -75 0
-78 -76 0
-78 -77 0
-78 -79 0
-78 -80 0
-78 -81 0
-79 -75 0
-79 -76 0
-79 -77 0
-79 -78 0
-79 -80 0
-79 -81 0
-80 -75 0
-80 -76 0
-80 -77 0
-80 -78 0
-80 -79 0
-80 -81 0
-81 -75 0
-81 -76 0
-81 -77 0
-81 -78 0
-81 -79 0
-81 -80 0
76 0
-2 -3 0
-2 -41 0
-3 -41 0
4 3 46 0
connect_same_number
-4 -82 89 0
-4 -83 90 0
-4 -84 91 0
-4 -85 92 0
-4 -86 93 0
-4 -87 94 0
-4 -88 95 0
-4 -89 82 0
-4 -90 83 0
-4 -91 84 0
-4 -92 85 0
-4 -93 86 0
-4 -94 87 0
-4 -95 88 0
-46 -82 124 0
-46 -83 125 0
-46 -84 126 0
-46 -85 127 0
-46 -86 128 0
-46 -87 129 0
-46 -88 130 0
-46 -124 82 0
-46 -125 83 0
-46 -126 84 0
-46 -127 85 0
-46 -128 86 0
-46 -129 87 0
-46 -130 88 0
82 83 84 85 86 87 88 0
-82 -83 0
-82 -84 0
-82 -85 0
-82 -86 0
-82 -87 0
-82 -88 0
-83 -82 0
-83 -84 0
-83 -85 0
-83 -86 0
-83 -87 0
-83 -88 0
-84 -82 0
-84 -83 0
-84 -85 0
-84 -86 0
-84 -87 0
-84 -88 0
-85 -82 0
-85 -83 0
-85 -84 0
-85 -86 0
-85 -87 0
-85 -88 0
-86 -82 0
-86 -83 0
-86 -84 0
-86 -85 0
-86 -87 0
-86 -88 0
-87 -82 0
-87 -83 0
-87 -84 0
-87 -85 0
-87 -86 0
-87 -88 0
-88 -82 0
-88 -83 0
-88 -84 0
-88 -85 0
-88 -86 0
-88 -87 0
-3 4 46 0
-4 3 46 0
-46 3 4 0
3 -4 -46 0
4 -3 -46 0
46 -3 -4 0
5 4 51 0
connect_same_number
-5 -89 96 0
-5 -90 97 0
-5 -91 98 0
-5 -92 99 0
-5 -93 100 0
-5 -94 101 0
-5 -95 102 0
-5 -96 89 0
-5 -97 90 0
-5 -98 91 0
-5 -99 92 0
-5 -100 93 0
-5 -101 94 0
-5 -102 95 0
-51 -89 131 0
-51 -90 132 0
-51 -91 133 0
-51 -92 134 0
-51 -93 135 0
-51 -94 136 0
-51 -95 137 0
-51 -131 89 0
-51 -132 90 0
-51 -133 91 0
-51 -134 92 0
-51 -135 93 0
-51 -136 94 0
-51 -137 95 0
89 90 91 92 93 94 95 0
-89 -90 0
-89 -91 0
-89 -92 0
-89 -93 0
-89 -94 0
-89 -95 0
-90 -89 0
-90 -91 0
-90 -92 0
-90 -93 0
-90 -94 0
-90 -95 0
-91 -89 0
-91 -90 0
-91 -92 0
-91 -93 0
-91 -94 0
-91 -95 0
-92 -89 0
-92 -90 0
-92 -91 0
-92 -93 0
-92 -94 0
-92 -95 0
-93 -89 0
-93 -90 0
-93 -91 0
-93 -92 0
-93 -94 0
-93 -95 0
-94 -89 0
-94 -90 0
-94 -91 0
-94 -92 0
-94 -93 0
-94 -95 0
-95 -89 0
-95 -90 0
-95 -91 0
-95 -92 0
-95 -93 0
-95 -94 0
-4 5 51 0
-5 4 51 0
-51 4 5 0
4 -5 -51 0
5 -4 -51 0
51 -4 -5 0
5 56 0
connect_same_number
-6 -96 103 0
-6 -97 104 0
-6 -98 105 0
-6 -99 106 0
-6 -100 107 0
-6 -101 108 0
-6 -102 109 0
-6 -103 96 0
-6 -104 97 0
-6 -105 98 0
-6 -106 99 0
-6 -107 100 0
-6 -108 101 0
-6 -109 102 0
-56 -96 138 0
-56 -97 139 0
-56 -98 140 0
-56 -99 141 0
-56 -100 142 0
-56 -101 143 0
-56 -102 144 0
-56 -138 96 0
-56 -139 97 0
-56 -140 98 0
-56 -141 99 0
-56 -142 100 0
-56 -143 101 0
-56 -144 102 0
96 97 98 99 100 101 102 0
-96 -97 0
-96 -98 0
-96 -99 0
-96 -100 0
-96 -101 0
-96 -102 0
-97 -96 0
-97 -98 0
-97 -99 0
-97 -100 0
-97 -101 0
-97 -102 0
-98 -96 0
-98 -97 0
-98 -99 0
-98 -100 0
-98 -101 0
-98 -102 0
-99 -96 0
-99 -97 0
-99 -98 0
-99 -100 0
-99 -101 0
-99 -102 0
-100 -96 0
-100 -97 0
-100 -98 0
-100 -99 0
-100 -101 0
-100 -102 0
-101 -96 0
-101 -97 0
-101 -98 0
-101 -99 0
-101 -100 0
-101 -102 0
-102 -96 0
-102 -97 0
-102 -98 0
-102 -99 0
-102 -100 0
-102 -101 0
56 0
5 0
6 31 32 0
connect_same_number
-6 -103 110 0
-6 -104 111 0
-6 -105 112 0
-6 -106 113 0
-6 -107 114 0
-6 -108 115 0
-6 -109 116 0
-6 -110 103 0
-6 -111 104 0
-6 -112 105 0
-6 -113 106 0
-6 -114 107 0
-6 -115 108 0
-6 -116 109 0
-32 -103 145 0
-32 -104 146 0
-32 -105 147 0
-32 -106 148 0
-32 -107 149 0
-32 -108 150 0
-32 -109 151 0
-32 -145 103 0
-32 -146 104 0
-32 -147 105 0
-32 -148 106 0
-32 -149 107 0
-32 -150 108 0
-32 -151 109 0
103 104 105 106 107 108 109 0
-103 -104 0
-103 -105 0
-103 -106 0
-103 -107 0
-103 -108 0
-103 -109 0
-104 -103 0
-104 -105 0
-104 -106 0
-104 -107 0
-104 -108 0
-104 -109 0
-105 -103 0
-105 -104 0
-105 -106 0
-105 -107 0
-105 -108 0
-105 -109 0
-106 -103 0
-106 -104 0
-106 -105 0
-106 -107 0
-106 -108 0
-106 -109 0
-107 -103 0
-107 -104 0
-107 -105 0
-107 -106 0
-107 -108 0
-107 -109 0
-108 -103 0
-108 -104 0
-108 -105 0
-108 -106 0
-108 -107 0
-108 -109 0
-109 -103 0
-109 -104 0
-109 -105 0
-109 -106 0
-109 -107 0
-109 -108 0
106 0
-6 -31 0
-6 -32 0
-31 -32 0
6 7 36 37 0
connect_same_number
-7 -110 117 0
-7 -111 118 0
-7 -112 119 0
-7 -113 120 0
-7 -114 121 0
-7 -115 122 0
-7 -116 123 0
-7 -117 110 0
-7 -118 111 0
-7 -119 112 0
-7 -120 113 0
-7 -121 114 0
-7 -122 115 0
-7 -123 116 0
-37 -110 152 0
-37 -111 153 0
-37 -112 154 0
-37 -113 155 0
-37 -114 156 0
-37 -115 157 0
-37 -116 158 0
-37 -152 110 0
-37 -153 111 0
-37 -154 112 0
-37 -155 113 0
-37 -156 114 0
-37 -157 115 0
-37 -158 116 0
110 111 112 113 114 115 116 0
-110 -111 0
-110 -112 0
-110 -113 0
-110 -114 0
-110 -115 0
-110 -116 0
-111 -110 0
-111 -112 0
-111 -113 0
-111 -114 0
-111 -115 0
-111 -116 0
-112 -110 0
-112 -111 0
-112 -113 0
-112 -114 0
-112 -115 0
-112 -116 0
-113 -110 0
-113 -111 0
-113 -112 0
-113 -114 0
-113 -115 0
-113 -116 0
-114 -110 0
-114 -111 0
-114 -112 0
-114 -113 0
-114 -115 0
-114 -116 0
-115 -110 0
-115 -111 0
-115 -112 0
-115 -113 0
-115 -114 0
-115 -116 0
-116 -110 0
-116 -111 0
-116 -112 0
-116 -113 0
-116 -114 0
-116 -115 0
-6 7 36 37 0
-7 6 36 37 0
-36 6 7 37 0
-37 6 7 36 0
6 -7 -36 -37 0
7 -6 -36 -37 0
36 -6 -7 -37 0
37 -6 -7 -36 0
7 8 41 42 0
connect_same_number
-8 -117 124 0
-8 -118 125 0
-8 -119 126 0
-8 -120 127 0
-8 -121 128 0
-8 -122 129 0
-8 -123 130 0
-8 -124 117 0
-8 -125 118 0
-8 -126 119 0
-8 -127 120 0
-8 -128 121 0
-8 -129 122 0
-8 -130 123 0
-42 -117 159 0
-42 -118 160 0
-42 -119 161 0
-42 -120 162 0
-42 -121 163 0
-42 -122 164 0
-42 -123 165 0
-42 -159 117 0
-42 -160 118 0
-42 -161 119 0
-42 -162 120 0
-42 -163 121 0
-42 -164 122 0
-42 -165 123 0
117 118 119 120 121 122 123 0
-117 -118 0
-117 -119 0
-117 -120 0
-117 -121 0
-117 -122 0
-117 -123 0
-118 -117 0
-118 -119 0
-118 -120 0
-118 -121 0
-118 -122 0
-118 -123 0
-119 -117 0
-119 -118 0
-119 -120 0
-119 -121 0
-119 -122 0
-119 -123 0
-120 -117 0
-120 -118 0
-120 -119 0
-120 -121 0
-120 -122 0
-120 -123 0
-121 -117 0
-121 -118 0
-121 -119 0
-121 -120 0
-121 -122 0
-121 -123 0
-122 -117 0
-122 -118 0
-122 -119 0
-122 -120 0
-122 -121 0
-122 -123 0
-123 -117 0
-123 -118 0
-123 -119 0
-123 -120 0
-123 -121 0
-123 -122 0
-7 8 41 42 0
-8 7 41 42 0
-41 7 8 42 0
-42 7 8 41 0
7 -8 -41 -42 0
8 -7 -41 -42 0
41 -7 -8 -42 0
42 -7 -8 -41 0
8 9 46 47 0
connect_same_number
-9 -124 131 0
-9 -125 132 0
-9 -126 133 0
-9 -127 134 0
-9 -128 135 0
-9 -129 136 0
-9 -130 137 0
-9 -131 124 0
-9 -132 125 0
-9 -133 126 0
-9 -134 127 0
-9 -135 128 0
-9 -136 129 0
-9 -137 130 0
-47 -124 166 0
-47 -125 167 0
-47 -126 168 0
-47 -127 169 0
-47 -128 170 0
-47 -129 171 0
-47 -130 172 0
-47 -166 124 0
-47 -167 125 0
-47 -168 126 0
-47 -169 127 0
-47 -170 128 0
-47 -171 129 0
-47 -172 130 0
124 125 126 127 128 129 130 0
-124 -125 0
-124 -126 0
-124 -127 0
-124 -128 0
-124 -129 0
-124 -130 0
-125 -124 0
-125 -126 0
-125 -127 0
-125 -128 0
-125 -129 0
-125 -130 0
-126 -124 0
-126 -125 0
-126 -127 0
-126 -128 0
-126 -129 0
-126 -130 0
-127 -124 0
-127 -125 0
-127 -126 0
-127 -128 0
-127 -129 0
-127 -130 0
-128 -124 0
-128 -125 0
-128 -126 0
-128 -127 0
-128 -129 0
-128 -130 0
-129 -124 0
-129 -125 0
-129 -126 0
-129 -127 0
-129 -128 0
-129 -130 0
-130 -124 0
-130 -125 0
-130 -126 0
-130 -127 0
-130 -128 0
-130 -129 0
-8 9 46 47 0
-9 8 46 47 0
-46 8 9 47 0
-47 8 9 46 0
8 -9 -46 -47 0
9 -8 -46 -47 0
46 -8 -9 -47 0
47 -8 -9 -46 0
9 10 51 52 0
connect_same_number
-10 -131 138 0
-10 -132 139 0
-10 -133 140 0
-10 -134 141 0
-10 -135 142 0
-10 -136 143 0
-10 -137 144 0
-10 -138 131 0
-10 -139 132 0
-10 -140 133 0
-10 -141 134 0
-10 -142 135 0
-10 -143 136 0
-10 -144 137 0
-52 -131 173 0
-52 -132 174 0
-52 -133 175 0
-52 -134 176 0
-52 -135 177 0
-52 -136 178 0
-52 -137 179 0
-52 -173 131 0
-52 -174 132 0
-52 -175 133 0
-52 -176 134 0
-52 -177 135 0
-52 -178 136 0
-52 -179 137 0
131 132 133 134 135 136 137 0
-131 -132 0
-131 -133 0
-131 -134 0
-131 -135 0
-131 -136 0
-131 -137 0
-132 -131 0
-132 -133 0
-132 -134 0
-132 -135 0
-132 -136 0
-132 -137 0
-133 -131 0
-133 -132 0
-133 -134 0
-133 -135 0
-133 -136 0
-133 -137 0
-134 -131 0
-134 -132 0
-134 -133 0
-134 -135 0
-134 -136 0
-134 -137 0
-135 -131 0
-135 -132 0
-135 -133 0
-135 -134 0
-135 -136 0
-135 -137 0
-136 -131 0
-136 -132 0
-136 -133 0
-136 -134 0
-136 -135 0
-136 -137 0
-137 -131 0
-137 -132 0
-137 -133 0
-137 -134 0
-137 -135 0
-137 -136 0
131 0
-9 -10 0
-9 -51 0
-9 -52 0
-10 -51 0
-10 -52 0
-51 -52 0
10 56 57 0
connect_same_number
-11 -138 145 0
-11 -139 146 0
-11 -140 147 0
-11 -141 148 0
-11 -142 149 0
-11 -143 150 0
-11 -144 151 0
-11 -145 138 0
-11 -146 139 0
-11 -147 140 0
-11 -148 141 0
-11 -149 142 0
-11 -150 143 0
-11 -151 144 0
-57 -138 180 0
-57 -139 181 0
-57 -140 182 0
-57 -141 183 0
-57 -142 184 0
-57 -143 185 0
-57 -144 186 0
-57 -180 138 0
-57 -181 139 0
-57 -182 140 0
-57 -183 141 0
-57 -184 142 0
-57 -185 143 0
-57 -186 144 0
138 139 140 141 142 143 144 0
-138 -139 0
-138 -140 0
-138 -141 0
-138 -142 0
-138 -143 0
-138 -144 0
-139 -138 0
-139 -140 0
-139 -141 0
-139 -142 0
-139 -143 0
-139 -144 0
-140 -138 0
-140 -139 0
-140 -141 0
-140 -142 0
-140 -143 0
-140 -144 0
-141 -138 0
-141 -139 0
-141 -140 0
-141 -142 0
-141 -143 0
-141 -144 0
-142 -138 0
-142 -139 0
-142 -140 0
-142 -141 0
-142 -143 0
-142 -144 0
-143 -138 0
-143 -139 0
-143 -140 0
-143 -141 0
-143 -142 0
-143 -144 0
-144 -138 0
-144 -139 0
-144 -140 0
-144 -141 0
-144 -142 0
-144 -143 0
-10 56 57 0
-56 10 57 0
-57 10 56 0
10 -56 -57 0
56 -10 -57 0
57 -10 -56 0
11 32 33 0
connect_same_number
-11 -145 152 0
-11 -146 153 0
-11 -147 154 0
-11 -148 155 0
-11 -149 156 0
-11 -150 157 0
-11 -151 158 0
-11 -152 145 0
-11 -153 146 0
-11 -154 147 0
-11 -155 148 0
-11 -156 149 0
-11 -157 150 0
-11 -158 151 0
-33 -145 187 0
-33 -146 188 0
-33 -147 189 0
-33 -148 190 0
-33 -149 191 0
-33 -150 192 0
-33 -151 193 0
-33 -187 145 0
-33 -188 146 0
-33 -189 147 0
-33 -190 148 0
-33 -191 149 0
-33 -192 150 0
-33 -193 151 0
145 146 147 148 149 150 151 0
-145 -146 0
-145 -147 0
-145 -148 0
-145 -149 0
-145 -150 0
-145 -151 0
-146 -145 0
-146 -147 0
-146 -148 0
-146 -149 0
-146 -150 0
-146 -151 0
-147 -145 0
-147 -146 0
-147 -148 0
-147 -149 0
-147 -150 0
-147 -151 0
-148 -145 0
-148 -146 0
-148 -147 0
-148 -149 0
-148 -150 0
-148 -151 0
-149 -145 0
-149 -146 0
-149 -147 0
-149 -148 0
-149 -150 0
-149 -151 0
-150 -145 0
-150 -146 0
-150 -147 0
-150 -148 0
-150 -149 0
-150 -151 0
-151 -145 0
-151 -146 0
-151 -147 0
-151 -148 0
-151 -149 0
-151 -150 0
-11 32 33 0
-32 11 33 0
-33 11 32 0
11 -32 -33 0
32 -11 -33 0
33 -11 -32 0
11 12 37 38 0
connect_same_number
-12 -152 159 0
-12 -153 160 0
-12 -154 161 0
-12 -155 162 0
-12 -156 163 0
-12 -157 164 0
-12 -158 165 0
-12 -159 152 0
-12 -160 153 0
-12 -161 154 0
-12 -162 155 0
-12 -163 156 0
-12 -164 157 0
-12 -165 158 0
-38 -152 194 0
-38 -153 195 0
-38 -154 196 0
-38 -155 197 0
-38 -156 198 0
-38 -157 199 0
-38 -158 200 0
-38 -194 152 0
-38 -195 153 0
-38 -196 154 0
-38 -197 155 0
-38 -198 156 0
-38 -199 157 0
-38 -200 158 0
152 153 154 155 156 157 158 0
-152 -153 0
-152 -154 0
-152 -155 0
-152 -156 0
-152 -157 0
-152 -158 0
-153 -152 0
-153 -154 0
-153 -155 0
-153 -156 0
-153 -157 0
-153 -158 0
-154 -152 0
-154 -153 0
-154 -155 0
-154 -156 0
-154 -157 0
-154 -158 0
-155 -152 0
-155 -153 0
-155 -154 0
-155 -156 0
-155 -157 0
-155 -158 0
-156 -152 0
-156 -153 0
-156 -154 0
-156 -155 0
-156 -157 0
-156 -158 0
-157 -152 0
-157 -153 0
-157 -154 0
-157 -155 0
-157 -156 0
-157 -158 0
-158 -152 0
-158 -153 0
-158 -154 0
-158 -155 0
-158 -156 0
-158 -157 0
155 0
-11 -12 0
-11 -37 0
-11 -38 0
-12 -37 0
-12 -38 0
-37 -38 0
12 13 42 43 0
connect_same_number
-13 -159 166 0
-13 -160 167 0
-13 -161 168 0
-13 -162 169 0
-13 -163 170 0
-13 -164 171 0
-13 -165 172 0
-13 -166 159 0
-13 -167 160 0
-13 -168 161 0
-13 -169 162 0
-13 -170 163 0
-13 -171 164 0
-13 -172 165 0
-43 -159 201 0
-43 -160 202 0
-43 -161 203 0
-43 -162 204 0
-43 -163 205 0
-43 -164 206 0
-43 -165 207 0
-43 -201 159 0
-43 -202 160 0
-43 -203 161 0
-43 -204 162 0
-43 -205 163 0
-43 -206 164 0
-43 -207 165 0
159 160 161 162 163 164 165 0
-159 -160 0
-159 -161 0
-159 -162 0
-159 -163 0
-159 -164 0
-159 -165 0
-160 -159 0
-160 -161 0
-160 -162 0
-160 -163 0
-160 -164 0
-160 -165 0
-161 -159 0
-161 -160 0
-161 -162 0
-161 -163 0
-161 -164 0
-161 -165 0
-162 -159 0
-162 -160 0
-162 -161 0
-162 -163 0
-162 -164 0
-162 -165 0
-163 -159 0
-163 -160 0
-163 -161 0
-163 -162 0
-163 -164 0
-163 -165 0
-164 -159 0
-164 -160 0
-164 -161 0
-164 -162 0
-164 -163 0
-164 -165 0
-165 -159 0
-165 -160 0
-165 -161 0
-165 -162 0
-165 -163 0
-165 -164 0
161 0
-12 -13 0
-12 -42 0
-12 -43 0
-13 -42 0
-13 -43 0
-42 -43 0
13 14 47 48 0
connect_same_number
-14 -166 173 0
-14 -167 174 0
-14 -168 175 0
-14 -169 176 0
-14 -170 177 0
-14 -171 178 0
-14 -172 179 0
-14 -173 166 0
-14 -174 167 0
-14 -175 168 0
-14 -176 169 0
-14 -177 170 0
-14 -178 171 0
-14 -179 172 0
-48 -166 208 0
-48 -167 209 0
-48 -168 210 0
-48 -169 211 0
-48 -170 212 0
-48 -171 213 0
-48 -172 214 0
-48 -208 166 0
-48 -209 167 0
-48 -210 168 0
-48 -211 169 0
-48 -212 170 0
-48 -213 171 0
-48 -214 172 0
166 167 168 169 170 171 172 0
-166 -167 0
-166 -168 0
-166 -169 0
-166 -170 0
-166 -171 0
-166 -172 0
-167 -166 0
-167 -168 0
-167 -169 0
-167 -170 0
-167 -171 0
-167 -172 0
-168 -166 0
-168 -167 0
-168 -169 0
-168 -170 0
-168 -171 0
-168 -172 0
-169 -166 0
-169 -167 0
-169 -168 0
-169 -170 0
-169 -171 0
-169 -172 0
-170 -166 0
-170 -167 0
-170 -168 0
-170 -169 0
-170 -171 0
-170 -172 0
-171 -166 0
-171 -167 0
-171 -168 0
-171 -169 0
-171 -170 0
-171 -172 0
-172 -166 0
-172 -167 0
-172 -168 0
-172 -169 0
-172 -170 0
-172 -171 0
-13 14 47 48 0
-14 13 47 48 0
-47 13 14 48 0
-48 13 14 47 0
13 -14 -47 -48 0
14 -13 -47 -48 0
47 -13 -14 -48 0
48 -13 -14 -47 0
14 15 52 53 0
connect_same_number
-15 -173 180 0
-15 -174 181 0
-15 -175 182 0
-15 -176 183 0
-15 -177 184 0
-15 -178 185 0
-15 -179 186 0
-15 -180 173 0
-15 -181 174 0
-15 -182 175 0
-15 -183 176 0
-15 -184 177 0
-15 -185 178 0
-15 -186 179 0
-53 -173 215 0
-53 -174 216 0
-53 -175 217 0
-53 -176 218 0
-53 -177 219 0
-53 -178 220 0
-53 -179 221 0
-53 -215 173 0
-53 -216 174 0
-53 -217 175 0
-53 -218 176 0
-53 -219 177 0
-53 -220 178 0
-53 -221 179 0
173 174 175 176 177 178 179 0
-173 -174 0
-173 -175 0
-173 -176 0
-173 -177 0
-173 -178 0
-173 -179 0
-174 -173 0
-174 -175 0
-174 -176 0
-174 -177 0
-174 -178 0
-174 -179 0
-175 -173 0
-175 -174 0
-175 -176 0
-175 -177 0
-175 -178 0
-175 -179 0
-176 -173 0
-176 -174 0
-176 -175 0
-176 -177 0
-176 -178 0
-176 -179 0
-177 -173 0
-177 -174 0
-177 -175 0
-177 -176 0
-177 -178 0
-177 -179 0
-178 -173 0
-178 -174 0
-178 -175 0
-178 -176 0
-178 -177 0
-178 -179 0
-179 -173 0
-179 -174 0
-179 -175 0
-179 -176 0
-179 -177 0
-179 -178 0
175 0
-14 -15 0
-14 -52 0
-14 -53 0
-15 -52 0
-15 -53 0
-52 -53 0
15 57 58 0
connect_same_number
-16 -180 187 0
-16 -181 188 0
-16 -182 189 0
-16 -183 190 0
-16 -184 191 0
-16 -185 192 0
-16 -186 193 0
-16 -187 180 0
-16 -188 181 0
-16 -189 182 0
-16 -190 183 0
-16 -191 184 0
-16 -192 185 0
-16 -193 186 0
-58 -180 222 0
-58 -181 223 0
-58 -182 224 0
-58 -183 225 0
-58 -184 226 0
-58 -185 227 0
-58 -186 228 0
-58 -222 180 0
-58 -223 181 0
-58 -224 182 0
-58 -225 183 0
-58 -226 184 0
-58 -227 185 0
-58 -228 186 0
180 181 182 183 184 185 186 0
-180 -181 0
-180 -182 0
-180 -183 0
-180 -184 0
-180 -185 0
-180 -186 0
-181 -180 0
-181 -182 0
-181 -183 0
-181 -184 0
-181 -185 0
-181 -186 0
-182 -180 0
-182 -181 0
-182 -183 0
-182 -184 0
-182 -185 0
-182 -186 0
-183 -180 0
-183 -181 0
-183 -182 0
-183 -184 0
-183 -185 0
-183 -186 0
-184 -180 0
-184 -181 0
-184 -182 0
-184 -183 0
-184 -185 0
-184 -186 0
-185 -180 0
-185 -181 0
-185 -182 0
-185 -183 0
-185 -184 0
-185 -186 0
-186 -180 0
-186 -181 0
-186 -182 0
-186 -183 0
-186 -184 0
-186 -185 0
-15 57 58 0
-57 15 58 0
-58 15 57 0
15 -57 -58 0
57 -15 -58 0
58 -15 -57 0
16 33 34 0
connect_same_number
-16 -187 194 0
-16 -188 195 0
-16 -189 196 0
-16 -190 197 0
-16 -191 198 0
-16 -192 199 0
-16 -193 200 0
-16 -194 187 0
-16 -195 188 0
-16 -196 189 0
-16 -197 190 0
-16 -198 191 0
-16 -199 192 0
-16 -200 193 0
-34 -187 229 0
-34 -188 230 0
-34 -189 231 0
-34 -190 232 0
-34 -191 233 0
-34 -192 234 0
-34 -193 235 0
-34 -229 187 0
-34 -230 188 0
-34 -231 189 0
-34 -232 190 0
-34 -233 191 0
-34 -234 192 0
-34 -235 193 0
187 188 189 190 191 192 193 0
-187 -188 0
-187 -189 0
-187 -190 0
-187 -191 0
-187 -192 0
-187 -193 0
-188 -187 0
-188 -189 0
-188 -190 0
-188 -191 0
-188 -192 0
-188 -193 0
-189 -187 0
-189 -188 0
-189 -190 0
-189 -191 0
-189 -192 0
-189 -193 0
-190 -187 0
-190 -188 0
-190 -189 0
-190 -191 0
-190 -192 0
-190 -193 0
-191 -187 0
-191 -188 0
-191 -189 0
-191 -190 0
-191 -192 0
-191 -193 0
-192 -187 0
-192 -188 0
-192 -189 0
-192 -190 0
-192 -191 0
-192 -193 0
-193 -187 0
-193 -188 0
-193 -189 0
-193 -190 0
-193 -191 0
-193 -192 0
-16 33 34 0
-33 16 34 0
-34 16 33 0
16 -33 -34 0
33 -16 -34 0
34 -16 -33 0
16 17 38 39 0
connect_same_number
-17 -194 201 0
-17 -195 202 0
-17 -196 203 0
-17 -197 204 0
-17 -198 205 0
-17 -199 206 0
-17 -200 207 0
-17 -201 194 0
-17 -202 195 0
-17 -203 196 0
-17 -204 197 0
-17 -205 198 0
-17 -206 199 0
-17 -207 200 0
-39 -194 236 0
-39 -195 237 0
-39 -196 238 0
-39 -197 239 0
-39 -198 240 0
-39 -199 241 0
-39 -200 242 0
-39 -236 194 0
-39 -237 195 0
-39 -238 196 0
-39 -239 197 0
-39 -240 198 0
-39 -241 199 0
-39 -242 200 0
194 195 196 197 198 199 200 0
-194 -195 0
-194 -196 0
-194 -197 0
-194 -198 0
-194 -199 0
-194 -200 0
-195 -194 0
-195 -196 0
-195 -197 0
-195 -198 0
-195 -199 0
-195 -200 0
-196 -194 0
-196 -195 0
-196 -197 0
-196 -198 0
-196 -199 0
-196 -200 0
-197 -194 0
-197 -195 0
-197 -196 0
-197 -198 0
-197 -199 0
-197 -200 0
-198 -194 0
-198 -195 0
-198 -196 0
-198 -197 0
-198 -199 0
-198 -200 0
-199 -194 0
-199 -195 0
-199 -196 0
-199 -197 0
-199 -198 0
-199 -200 0
-200 -194 0
-200 -195 0
-200 -196 0
-200 -197 0
-200 -198 0
-200 -199 0
199 0
-16 -17 0
-16 -38 0
-16 -39 0
-17 -38 0
-17 -39 0
-38 -39 0
17 18 43 44 0
connect_same_number
-18 -201 208 0
-18 -202 209 0
-18 -203 210 0
-18 -204 211 0
-18 -205 212 0
-18 -206 213 0
-18 -207 214 0
-18 -208 201 0
-18 -209 202 0
-18 -210 203 0
-18 -211 204 0
-18 -212 205 0
-18 -213 206 0
-18 -214 207 0
-44 -201 243 0
-44 -202 244 0
-44 -203 245 0
-44 -204 246 0
-44 -205 247 0
-44 -206 248 0
-44 -207 249 0
-44 -243 201 0
-44 -244 202 0
-44 -245 203 0
-44 -246 204 0
-44 -247 205 0
-44 -248 206 0
-44 -249 207 0
201 202 203 204 205 206 207 0
-201 -202 0
-201 -203 0
-201 -204 0
-201 -205 0
-201 -206 0
-201 -207 0
-202 -201 0
-202 -203 0
-202 -204 0
-202 -205 0
-202 -206 0
-202 -207 0
-203 -201 0
-203 -202 0
-203 -204 0
-203 -205 0
-203 -206 0
-203 -207 0
-204 -201 0
-204 -202 0
-204 -203 0
-204 -205 0
-204 -206 0
-204 -207 0
-205 -201 0
-205 -202 0
-205 -203 0
-205 -204 0
-205 -206 0
-205 -207 0
-206 -201 0
-206 -202 0
-206 -203 0
-206 -204 0
-206 -205 0
-206 -207 0
-207 -201 0
-207 -202 0
-207 -203 0
-207 -204 0
-207 -205 0
-207 -206 0
207 0
-17 -18 0
-17 -43 0
-17 -44 0
-18 -43 0
-18 -44 0
-43 -44 0
18 19 48 49 0
connect_same_number
-19 -208 215 0
-19 -209 216 0
-19 -210 217 0
-19 -211 218 0
-19 -212 219 0
-19 -213 220 0
-19 -214 221 0
-19 -215 208 0
-19 -216 209 0
-19 -217 210 0
-19 -218 211 0
-19 -219 212 0
-19 -220 213 0
-19 -221 214 0
-49 -208 250 0
-49 -209 251 0
-49 -210 252 0
-49 -211 253 0
-49 -212 254 0
-49 -213 255 0
-49 -214 256 0
-49 -250 208 0
-49 -251 209 0
-49 -252 210 0
-49 -253 211 0
-49 -254 212 0
-49 -255 213 0
-49 -256 214 0
208 209 210 211 212 213 214 0
-208 -209 0
-208 -210 0
-208 -211 0
-208 -212 0
-208 -213 0
-208 -214 0
-209 -208 0
-209 -210 0
-209 -211 0
-209 -212 0
-209 -213 0
-209 -214 0
-210 -208 0
-210 -209 0
-210 -211 0
-210 -212 0
-210 -213 0
-210 -214 0
-211 -208 0
-211 -209 0
-211 -210 0
-211 -212 0
-211 -213 0
-211 -214 0
-212 -208 0
-212 -209 0
-212 -210 0
-212 -211 0
-212 -213 0
-212 -214 0
-213 -208 0
-213 -209 0
-213 -210 0
-213 -211 0
-213 -212 0
-213 -214 0
-214 -208 0
-214 -209 0
-214 -210 0
-214 -211 0
-214 -212 0
-214 -213 0
-18 19 48 49 0
-19 18 48 49 0
-48 18 19 49 0
-49 18 19 48 0
18 -19 -48 -49 0
19 -18 -48 -49 0
48 -18 -19 -49 0
49 -18 -19 -48 0
19 20 53 54 0
connect_same_number
-20 -215 222 0
-20 -216 223 0
-20 -217 224 0
-20 -218 225 0
-20 -219 226 0
-20 -220 227 0
-20 -221 228 0
-20 -222 215 0
-20 -223 216 0
-20 -224 217 0
-20 -225 218 0
-20 -226 219 0
-20 -227 220 0
-20 -228 221 0
-54 -215 257 0
-54 -216 258 0
-54 -217 259 0
-54 -218 260 0
-54 -219 261 0
-54 -220 262 0
-54 -221 263 0
-54 -257 215 0
-54 -258 216 0
-54 -259 217 0
-54 -260 218 0
-54 -261 219 0
-54 -262 220 0
-54 -263 221 0
215 216 217 218 219 220 221 0
-215 -216 0
-215 -217 0
-215 -218 0
-215 -219 0
-215 -220 0
-215 -221 0
-216 -215 0
-216 -217 0
-216 -218 0
-216 -219 0
-216 -220 0
-216 -221 0
-217 -215 0
-217 -216 0
-217 -218 0
-217 -219 0
-217 -220 0
-217 -221 0
-218 -215 0
-218 -216 0
-218 -217 0
-218 -219 0
-218 -220 0
-218 -221 0
-219 -215 0
-219 -216 0
-219 -217 0
-219 -218 0
-219 -220 0
-219 -221 0
-220 -215 0
-220 -216 0
-220 -217 0
-220 -218 0
-220 -219 0
-220 -221 0
-221 -215 0
-221 -216 0
-221 -217 0
-221 -218 0
-221 -219 0
-221 -220 0
-19 20 53 54 0
-20 19 53 54 0
-53 19 20 54 0
-54 19 20 53 0
19 -20 -53 -54 0
20 -19 -53 -54 0
53 -19 -20 -54 0
54 -19 -20 -53 0
20 58 59 0
connect_same_number
-21 -222 229 0
-21 -223 230 0
-21 -224 231 0
-21 -225 232 0
-21 -226 233 0
-21 -227 234 0
-21 -228 235 0
-21 -229 222 0
-21 -230 223 0
-21 -231 224 0
-21 -232 225 0
-21 -233 226 0
-21 -234 227 0
-21 -235 228 0
-59 -222 264 0
-59 -223 265 0
-59 -224 266 0
-59 -225 267 0
-59 -226 268 0
-59 -227 269 0
-59 -228 270 0
-59 -264 222 0
-59 -265 223 0
-59 -266 224 0
-59 -267 225 0
-59 -268 226 0
-59 -269 227 0
-59 -270 228 0
222 223 224 225 226 227 228 0
-222 -223 0
-222 -224 0
-222 -225 0
-222 -226 0
-222 -227 0
-222 -228 0
-223 -222 0
-223 -224 0
-223 -225 0
-223 -226 0
-223 -227 0
-223 -228 0
-224 -222 0
-224 -223 0
-224 -225 0
-224 -226 0
-224 -227 0
-224 -228 0
-225 -222 0
-225 -223 0
-225 -224 0
-225 -226 0
-225 -227 0
-225 -228 0
-226 -222 0
-226 -223 0
-226 -224 0
-226 -225 0
-226 -227 0
-226 -228 0
-227 -222 0
-227 -223 0
-227 -224 0
-227 -225 0
-227 -226 0
-227 -228 0
-228 -222 0
-228 -223 0
-228 -224 0
-228 -225 0
-228 -226 0
-228 -227 0
-20 58 59 0
-58 20 59 0
-59 20 58 0
20 -58 -59 0
58 -20 -59 0
59 -20 -58 0
21 34 35 0
connect_same_number
-21 -229 236 0
-21 -230 237 0
-21 -231 238 0
-21 -232 239 0
-21 -233 240 0
-21 -234 241 0
-21 -235 242 0
-21 -236 229 0
-21 -237 230 0
-21 -238 231 0
-21 -239 232 0
-21 -240 233 0
-21 -241 234 0
-21 -242 235 0
-35 -229 271 0
-35 -230 272 0
-35 -231 273 0
-35 -232 274 0
-35 -233 275 0
-35 -234 276 0
-35 -235 277 0
-35 -271 229 0
-35 -272 230 0
-35 -273 231 0
-35 -274 232 0
-35 -275 233 0
-35 -276 234 0
-35 -277 235 0
229 230 231 232 233 234 235 0
-229 -230 0
-229 -231 0
-229 -232 0
-229 -233 0
-229 -234 0
-229 -235 0
-230 -229 0
-230 -231 0
-230 -232 0
-230 -233 0
-230 -234 0
-230 -235 0
-231 -229 0
-231 -230 0
-231 -232 0
-231 -233 0
-231 -234 0
-231 -235 0
-232 -229 0
-232 -230 0
-232 -231 0
-232 -233 0
-232 -234 0
-232 -235 0
-233 -229 0
-233 -230 0
-233 -231 0
-233 -232 0
-233 -234 0
-233 -235 0
-234 -229 0
-234 -230 0
-234 -231 0
-234 -232 0
-234 -233 0
-234 -235 0
-235 -229 0
-235 -230 0
-235 -231 0
-235 -232 0
-235 -233 0
-235 -234 0
-21 34 35 0
-34 21 35 0
-35 21 34 0
21 -34 -35 0
34 -21 -35 0
35 -21 -34 0
21 22 39 40 0
connect_same_number
-22 -236 243 0
-22 -237 244 0
-22 -238 245 0
-22 -239 246 0
-22 -240 247 0
-22 -241 248 0
-22 -242 249 0
-22 -243 236 0
-22 -244 237 0
-22 -245 238 0
-22 -246 239 0
-22 -247 240 0
-22 -248 241 0
-22 -249 242 0
-40 -236 278 0
-40 -237 279 0
-40 -238 280 0
-40 -239 281 0
-40 -240 282 0
-40 -241 283 0
-40 -242 284 0
-40 -278 236 0
-40 -279 237 0
-40 -280 238 0
-40 -281 239 0
-40 -282 240 0
-40 -283 241 0
-40 -284 242 0
236 237 238 239 240 241 242 0
-236 -237 0
-236 -238 0
-236 -239 0
-236 -240 0
-236 -241 0
-236 -242 0
-237 -236 0
-237 -238 0
-237 -239 0
-237 -240 0
-237 -241 0
-237 -242 0
-238 -236 0
-238 -237 0
-238 -239 0
-238 -240 0
-238 -241 0
-238 -242 0
-239 -236 0
-239 -237 0
-239 -238 0
-239 -240 0
-239 -241 0
-239 -242 0
-240 -236 0
-240 -237 0
-240 -238 0
-240 -239 0
-240 -241 0
-240 -242 0
-241 -236 0
-241 -237 0
-241 -238 0
-241 -239 0
-241 -240 0
-241 -242 0
-242 -236 0
-242 -237 0
-242 -238 0
-242 -239 0
-242 -240 0
-242 -241 0
240 0
-21 -22 0
-21 -39 0
-21 -40 0
-22 -39 0
-22 -40 0
-39 -40 0
22 23 44 45 0
connect_same_number
-23 -243 250 0
-23 -244 251 0
-23 -245 252 0
-23 -246 253 0
-23 -247 254 0
-23 -248 255 0
-23 -249 256 0
-23 -250 243 0
-23 -251 244 0
-23 -252 245 0
-23 -253 246 0
-23 -254 247 0
-23 -255 248 0
-23 -256 249 0
-45 -243 285 0
-45 -244 286 0
-45 -245 287 0
-45 -246 288 0
-45 -247 289 0
-45 -248 290 0
-45 -249 291 0
-45 -285 243 0
-45 -286 244 0
-45 -287 245 0
-45 -288 246 0
-45 -289 247 0
-45 -290 248 0
-45 -291 249 0
243 244 245 246 247 248 249 0
-243 -244 0
-243 -245 0
-243 -246 0
-243 -247 0
-243 -248 0
-243 -249 0
-244 -243 0
-244 -245 0
-244 -246 0
-244 -247 0
-244 -248 0
-244 -249 0
-245 -243 0
-245 -244 0
-245 -246 0
-245 -247 0
-245 -248 0
-245 -249 0
-246 -243 0
-246 -244 0
-246 -245 0
-246 -247 0
-246 -248 0
-246 -249 0
-247 -243 0
-247 -244 0
-247 -245 0
-247 -246 0
-247 -248 0
-247 -249 0
-248 -243 0
-248 -244 0
-248 -245 0
-248 -246 0
-248 -247 0
-248 -249 0
-249 -243 0
-249 -244 0
-249 -245 0
-249 -246 0
-249 -247 0
-249 -248 0
-22 23 44 45 0
-23 22 44 45 0
-44 22 23 45 0
-45 22 23 44 0
22 -23 -44 -45 0
23 -22 -44 -45 0
44 -22 -23 -45 0
45 -22 -23 -44 0
23 24 49 50 0
connect_same_number
-24 -250 257 0
-24 -251 258 0
-24 -252 259 0
-24 -253 260 0
-24 -254 261 0
-24 -255 262 0
-24 -256 263 0
-24 -257 250 0
-24 -258 251 0
-24 -259 252 0
-24 -260 253 0
-24 -261 254 0
-24 -262 255 0
-24 -263 256 0
-50 -250 292 0
-50 -251 293 0
-50 -252 294 0
-50 -253 295 0
-50 -254 296 0
-50 -255 297 0
-50 -256 298 0
-50 -292 250 0
-50 -293 251 0
-50 -294 252 0
-50 -295 253 0
-50 -296 254 0
-50 -297 255 0
-50 -298 256 0
250 251 252 253 254 255 256 0
-250 -251 0
-250 -252 0
-250 -253 0
-250 -254 0
-250 -255 0
-250 -256 0
-251 -250 0
-251 -252 0
-251 -253 0
-251 -254 0
-251 -255 0
-251 -256 0
-252 -250 0
-252 -251 0
-252 -253 0
-252 -254 0
-252 -255 0
-252 -256 0
-253 -250 0
-253 -251 0
-253 -252 0
-253 -254 0
-253 -255 0
-253 -256 0
-254 -250 0
-254 -251 0
-254 -252 0
-254 -253 0
-254 -255 0
-254 -256 0
-255 -250 0
-255 -251 0
-255 -252 0
-255 -253 0
-255 -254 0
-255 -256 0
-256 -250 0
-256 -251 0
-256 -252 0
-256 -253 0
-256 -254 0
-256 -255 0
-23 24 49 50 0
-24 23 49 50 0
-49 23 24 50 0
-50 23 24 49 0
23 -24 -49 -50 0
24 -23 -49 -50 0
49 -23 -24 -50 0
50 -23 -24 -49 0
24 25 54 55 0
connect_same_number
-25 -257 264 0
-25 -258 265 0
-25 -259 266 0
-25 -260 267 0
-25 -261 268 0
-25 -262 269 0
-25 -263 270 0
-25 -264 257 0
-25 -265 258 0
-25 -266 259 0
-25 -267 260 0
-25 -268 261 0
-25 -269 262 0
-25 -270 263 0
-55 -257 299 0
-55 -258 300 0
-55 -259 301 0
-55 -260 302 0
-55 -261 303 0
-55 -262 304 0
-55 -263 305 0
-55 -299 257 0
-55 -300 258 0
-55 -301 259 0
-55 -302 260 0
-55 -303 261 0
-55 -304 262 0
-55 -305 263 0
257 258 259 260 261 262 263 0
-257 -258 0
-257 -259 0
-257 -260 0
-257 -261 0
-257 -262 0
-257 -263 0
-258 -257 0
-258 -259 0
-258 -260 0
-258 -261 0
-258 -262 0
-258 -263 0
-259 -257 0
-259 -258 0
-259 -260 0
-259 -261 0
-259 -262 0
-259 -263 0
-260 -257 0
-260 -258 0
-260 -259 0
-260 -261 0
-260 -262 0
-260 -263 0
-261 -257 0
-261 -258 0
-261 -259 0
-261 -260 0
-261 -262 0
-261 -263 0
-262 -257 0
-262 -258 0
-262 -259 0
-262 -260 0
-262 -261 0
-262 -263 0
-263 -257 0
-263 -258 0
-263 -259 0
-263 -260 0
-263 -261 0
-263 -262 0
263 0
-24 -25 0
-24 -54 0
-24 -55 0
-25 -54 0
-25 -55 0
-54 -55 0
25 59 60 0
connect_same_number
-26 -264 271 0
-26 -265 272 0
-26 -266 273 0
-26 -267 274 0
-26 -268 275 0
-26 -269 276 0
-26 -270 277 0
-26 -271 264 0
-26 -272 265 0
-26 -273 266 0
-26 -274 267 0
-26 -275 268 0
-26 -276 269 0
-26 -277 270 0
-60 -264 306 0
-60 -265 307 0
-60 -266 308 0
-60 -267 309 0
-60 -268 310 0
-60 -269 311 0
-60 -270 312 0
-60 -306 264 0
-60 -307 265 0
-60 -308 266 0
-60 -309 267 0
-60 -310 268 0
-60 -311 269 0
-60 -312 270 0
264 265 266 267 268 269 270 0
-264 -265 0
-264 -266 0
-264 -267 0
-264 -268 0
-264 -269 0
-264 -270 0
-265 -264 0
-265 -266 0
-265 -267 0
-265 -268 0
-265 -269 0
-265 -270 0
-266 -264 0
-266 -265 0
-266 -267 0
-266 -268 0
-266 -269 0
-266 -270 0
-267 -264 0
-267 -265 0
-267 -266 0
-267 -268 0
-267 -269 0
-267 -270 0
-268 -264 0
-268 -265 0
-268 -266 0
-268 -267 0
-268 -269 0
-268 -270 0
-269 -264 0
-269 -265 0
-269 -266 0
-269 -267 0
-269 -268 0
-269 -270 0
-270 -264 0
-270 -265 0
-270 -266 0
-270 -267 0
-270 -268 0
-270 -269 0
-25 59 60 0
-59 25 60 0
-60 25 59 0
25 -59 -60 0
59 -25 -60 0
60 -25 -59 0
26 35 0
connect_same_number
-26 -271 278 0
-26 -272 279 0
-26 -273 280 0
-26 -274 281 0
-26 -275 282 0
-26 -276 283 0
-26 -277 284 0
-26 -278 271 0
-26 -279 272 0
-26 -280 273 0
-26 -281 274 0
-26 -282 275 0
-26 -283 276 0
-26 -284 277 0
-36 -271 313 0
-36 -272 314 0
-36 -273 315 0
-36 -274 316 0
-36 -275 317 0
-36 -276 318 0
-36 -277 319 0
-36 -313 271 0
-36 -314 272 0
-36 -315 273 0
-36 -316 274 0
-36 -317 275 0
-36 -318 276 0
-36 -319 277 0
271 272 273 274 275 276 277 0
-271 -272 0
-271 -273 0
-271 -274 0
-271 -275 0
-271 -276 0
-271 -277 0
-272 -271 0
-272 -273 0
-272 -274 0
-272 -275 0
-272 -276 0
-272 -277 0
-273 -271 0
-273 -272 0
-273 -274 0
-273 -275 0
-273 -276 0
-273 -277 0
-274 -271 0
-274 -272 0
-274 -273 0
-274 -275 0
-274 -276 0
-274 -277 0
-275 -271 0
-275 -272 0
-275 -273 0
-275 -274 0
-275 -276 0
-275 -277 0
-276 -271 0
-276 -272 0
-276 -273 0
-276 -274 0
-276 -275 0
-276 -277 0
-277 -271 0
-277 -272 0
-277 -273 0
-277 -274 0
-277 -275 0
-277 -276 0
35 0
26 0
27 40 26 0
connect_same_number
-27 -278 285 0
-27 -279 286 0
-27 -280 287 0
-27 -281 288 0
-27 -282 289 0
-27 -283 290 0
-27 -284 291 0
-27 -285 278 0
-27 -286 279 0
-27 -287 280 0
-27 -288 281 0
-27 -289 282 0
-27 -290 283 0
-27 -291 284 0
-41 -278 320 0
-41 -279 321 0
-41 -280 322 0
-41 -281 323 0
-41 -282 324 0
-41 -283 325 0
-41 -284 326 0
-41 -320 278 0
-41 -321 279 0
-41 -322 280 0
-41 -323 281 0
-41 -324 282 0
-41 -325 283 0
-41 -326 284 0
278 279 280 281 282 283 284 0
-278 -279 0
-278 -280 0
-278 -281 0
-278 -282 0
-278 -283 0
-278 -284 0
-279 -278 0
-279 -280 0
-279 -281 0
-279 -282 0
-279 -283 0
-279 -284 0
-280 -278 0
-280 -279 0
-280 -281 0
-280 -282 0
-280 -283 0
-280 -284 0
-281 -278 0
-281 -279 0
-281 -280 0
-281 -282 0
-281 -283 0
-281 -284 0
-282 -278 0
-282 -279 0
-282 -280 0
-282 -281 0
-282 -283 0
-282 -284 0
-283 -278 0
-283 -279 0
-283 -280 0
-283 -281 0
-283 -282 0
-283 -284 0
-284 -278 0
-284 -279 0
-284 -280 0
-284 -281 0
-284 -282 0
-284 -283 0
-26 27 40 0
-27 26 40 0
-40 26 27 0
26 -27 -40 0
27 -26 -40 0
40 -26 -27 0
28 45 27 0
connect_same_number
-28 -285 292 0
-28 -286 293 0
-28 -287 294 0
-28 -288 295 0
-28 -289 296 0
-28 -290 297 0
-28 -291 298 0
-28 -292 285 0
-28 -293 286 0
-28 -294 287 0
-28 -295 288 0
-28 -296 289 0
-28 -297 290 0
-28 -298 291 0
-46 -285 327 0
-46 -286 328 0
-46 -287 329 0
-46 -288 330 0
-46 -289 331 0
-46 -290 332 0
-46 -291 333 0
-46 -327 285 0
-46 -328 286 0
-46 -329 287 0
-46 -330 288 0
-46 -331 289 0
-46 -332 290 0
-46 -333 291 0
285 286 287 288 289 290 291 0
-285 -286 0
-285 -287 0
-285 -288 0
-285 -289 0
-285 -290 0
-285 -291 0
-286 -285 0
-286 -287 0
-286 -288 0
-286 -289 0
-286 -290 0
-286 -291 0
-287 -285 0
-287 -286 0
-287 -288 0
-287 -289 0
-287 -290 0
-287 -291 0
-288 -285 0
-288 -286 0
-288 -287 0
-288 -289 0
-288 -290 0
-288 -291 0
-289 -285 0
-289 -286 0
-289 -287 0
-289 -288 0
-289 -290 0
-289 -291 0
-290 -285 0
-290 -286 0
-290 -287 0
-290 -288 0
-290 -289 0
-290 -291 0
-291 -285 0
-291 -286 0
-291 -287 0
-291 -288 0
-291 -289 0
-291 -290 0
290 0
-27 -28 0
-27 -45 0
-28 -45 0
29 50 28 0
connect_same_number
-29 -292 299 0
-29 -293 300 0
-29 -294 301 0
-29 -295 302 0
-29 -296 303 0
-29 -297 304 0
-29 -298 305 0
-29 -299 292 0
-29 -300 293 0
-29 -301 294 0
-29 -302 295 0
-29 -303 296 0
-29 -304 297 0
-29 -305 298 0
-51 -292 334 0
-51 -293 335 0
-51 -294 336 0
-51 -295 337 0
-51 -296 338 0
-51 -297 339 0
-51 -298 340 0
-51 -334 292 0
-51 -335 293 0
-51 -336 294 0
-51 -337 295 0
-51 -338 296 0
-51 -339 297 0
-51 -340 298 0
292 293 294 295 296 297 298 0
-292 -293 0
-292 -294 0
-292 -295 0
-292 -296 0
-292 -297 0
-292 -298 0
-293 -292 0
-293 -294 0
-293 -295 0
-293 -296 0
-293 -297 0
-293 -298 0
-294 -292 0
-294 -293 0
-294 -295 0
-294 -296 0
-294 -297 0
-294 -298 0
-295 -292 0
-295 -293 0
-295 -294 0
-295 -296 0
-295 -297 0
-295 -298 0
-296 -292 0
-296 -293 0
-296 -294 0
-296 -295 0
-296 -297 0
-296 -298 0
-297 -292 0
-297 -293 0
-297 -294 0
-297 -295 0
-297 -296 0
-297 -298 0
-298 -292 0
-298 -293 0
-298 -294 0
-298 -295 0
-298 -296 0
-298 -297 0
296 0
-28 -29 0
-28 -50 0
-29 -50 0
30 55 29 0
connect_same_number
-30 -299 306 0
-30 -300 307 0
-30 -301 308 0
-30 -302 309 0
-30 -303 310 0
-30 -304 311 0
-30 -305 312 0
-30 -306 299 0
-30 -307 300 0
-30 -308 301 0
-30 -309 302 0
-30 -310 303 0
-30 -311 304 0
-30 -312 305 0
-56 -299 341 0
-56 -300 342 0
-56 -301 343 0
-56 -302 344 0
-56 -303 345 0
-56 -304 346 0
-56 -305 347 0
-56 -341 299 0
-56 -342 300 0
-56 -343 301 0
-56 -344 302 0
-56 -345 303 0
-56 -346 304 0
-56 -347 305 0
299 300 301 302 303 304 305 0
-299 -300 0
-299 -301 0
-299 -302 0
-299 -303 0
-299 -304 0
-299 -305 0
-300 -299 0
-300 -301 0
-300 -302 0
-300 -303 0
-300 -304 0
-300 -305 0
-301 -299 0
-301 -300 0
-301 -302 0
-301 -303 0
-301 -304 0
-301 -305 0
-302 -299 0
-302 -300 0
-302 -301 0
-302 -303 0
-302 -304 0
-302 -305 0
-303 -299 0
-303 -300 0
-303 -301 0
-303 -302 0
-303 -304 0
-303 -305 0
-304 -299 0
-304 -300 0
-304 -301 0
-304 -302 0
-304 -303 0
-304 -305 0
-305 -299 0
-305 -300 0
-305 -301 0
-305 -302 0
-305 -303 0
-305 -304 0
300 0
-29 -30 0
-29 -55 0
-30 -55 0
30 60 0
connect_same_number
-31 -306 313 0
-31 -307 314 0
-31 -308 315 0
-31 -309 316 0
-31 -310 317 0
-31 -311 318 0
-31 -312 319 0
-31 -313 306 0
-31 -314 307 0
-31 -315 308 0
-31 -316 309 0
-31 -317 310 0
-31 -318 311 0
-31 -319 312 0
-61 -306 348 0
-61 -307 349 0
-61 -308 350 0
-61 -309 351 0
-61 -310 352 0
-61 -311 353 0
-61 -312 354 0
-61 -348 306 0
-61 -349 307 0
-61 -350 308 0
-61 -351 309 0
-61 -352 310 0
-61 -353 311 0
-61 -354 312 0
306 307 308 309 310 311 312 0
-306 -307 0
-306 -308 0
-306 -309 0
-306 -310 0
-306 -311 0
-306 -312 0
-307 -306 0
-307 -308 0
-307 -309 0
-307 -310 0
-307 -311 0
-307 -312 0
-308 -306 0
-308 -307 0
-308 -309 0
-308 -310 0
-308 -311 0
-308 -312 0
-309 -306 0
-309 -307 0
-309 -308 0
-309 -310 0
-309 -311 0
-309 -312 0
-310 -306 0
-310 -307 0
-310 -308 0
-310 -309 0
-310 -311 0
-310 -312 0
-311 -306 0
-311 -307 0
-311 -308 0
-311 -309 0
-311 -310 0
-311 -312 0
-312 -306 0
-312 -307 0
-312 -308 0
-312 -309 0
-312 -310 0
-312 -311 0
60 0
30 0